
--- Job C6-E1.gms Start 09/13/24 14:41:15 47.3.0 125a0e22 WEX-WEI x86 64bit/MS Windows
--- Applying:
    C:\GAMS\47\gmsprmNT.txt
--- GAMS Parameters defined
    Input C:\Users\pm.deoliveiradejes\Documents\GitHub\PSE\C6_MINLP\C6-E1.gms
    PageSize 0
    ScrDir C:\Users\pm.deoliveiradejes\Documents\GitHub\PSE\C6_MINLP\225a\
    SysDir C:\GAMS\47\
    LogOption 3
    ErrMsg 1
    ErrorLog 99
    IDE 1
    LstTitleLeftAligned 1
Licensee: Academic User                                  G240823+0003Ac-GEN
          pm.deoliveiradejes@uniandes.edu.co                      CLA100108
          225a\gamslice.dat
          node:36839801 mem:8 cores:4 ipport:63804                         
          Community license for demonstration and instructional purposes only
Processor information: 1 socket(s), 4 core(s), and 8 thread(s) available
GAMS 47.3.0   Copyright (C) 1987-2024 GAMS Development. All rights reserved
--- Starting compilation
--- C6-E1.gms(85) 3 Mb
--- Starting execution: elapsed 0:00:00.031
--- C6-E1.gms(68) 4 Mb
--- Generating MINLP model modelCe
--- C6-E1.gms(85) 6 Mb
---   145 rows  169 columns  432 non-zeroes
---   0 nl-code  0 nl-non-zeroes
---   48 discrete-columns
--- Range statistics (absolute non-zero finite values)
--- RHS       [min, max] : [ 3.000E+02, 5.000E+03] - Zero values observed as well
--- Bound     [min, max] : [ 1.000E+00, 2.700E+03] - Zero values observed as well
--- Matrix    [min, max] : [ 9.500E-01, 5.000E+03]
--- C6-E1.gms(85) 4 Mb
--- Executing DICOPT (Solvelink=2): elapsed 0:00:00.047
-------------------------------------------------------------------------------
Dicopt 2         47.3.0 125a0e22 Jul 15, 2024          WEI x86 64bit/MS Window
-------------------------------------------------------------------------------
*** This solver runs with a community license. No commercial use.
--- DICOPT: No non-linearities found: executing the MIP solver

      The model is linear (possibly with integer variables).
      We will call the MIP solver to solve it for you.

      Advice: use a MIP solver to solve this problem.

IBM ILOG CPLEX   47.3.0 125a0e22 Jul 15, 2024          WEI x86 64bit/MS Window

*** This solver runs with a community license. No commercial use.
--- GMO setup time: 0.00s
--- GMO memory 0.54 Mb (peak 0.54 Mb)
--- Dictionary memory 0.00 Mb
--- Cplex 22.1.1.0 link memory 0.00 Mb (peak 0.02 Mb)
--- Starting Cplex

Version identifier: 22.1.1.0 | 2022-11-27 | 9160aff4d
CPXPARAM_Advance                                 0
CPXPARAM_MIP_Display                             4
CPXPARAM_MIP_Pool_Capacity                       0
CPXPARAM_MIP_Tolerances_AbsMIPGap                0
Generic callback                                 0x50
Tried aggregator 2 times.
MIP Presolve eliminated 58 rows and 60 columns.
MIP Presolve modified 1 coefficients.
Aggregator did 2 substitutions.
Reduced MIP has 84 rows, 107 columns, and 224 nonzeros.
Reduced MIP has 28 binaries, 0 generals, 0 SOSs, and 0 indicators.
Presolve time = 0.03 sec. (0.21 ticks)
Found incumbent of value -92939.694508 after 0.05 sec. (0.36 ticks)
Probing fixed 0 vars, tightened 13 bounds.
Probing time = 0.00 sec. (0.02 ticks)
Tried aggregator 1 time.
Detecting symmetries...
MIP Presolve modified 19 coefficients.
Reduced MIP has 84 rows, 107 columns, and 224 nonzeros.
Reduced MIP has 28 binaries, 0 generals, 0 SOSs, and 0 indicators.
Presolve time = 0.00 sec. (0.15 ticks)
Probing time = 0.00 sec. (0.02 ticks)
Clique table members: 6.
MIP emphasis: balance optimality and feasibility.
MIP search method: dynamic search.
Parallel mode: deterministic, using up to 8 threads.
Parallel mode: deterministic, using up to 2 threads for parallel tasks at root LP.
Tried aggregator 1 time.
Aggregator did 28 substitutions.
Reduced LP has 56 rows, 79 columns, and 168 nonzeros.
Presolve time = 0.00 sec. (0.06 ticks)
Initializing dual steep norms . . .

Iteration log . . .
Iteration:     1   Dual objective     =        -42952.778032
Initializing dual steep norms . . .
Root relaxation solution time = 0.00 sec. (0.17 ticks)

        Nodes                                         Cuts/
   Node  Left     Objective  IInf  Best Integer    Best Bound    ItCnt     Gap

*     0+    0                       -92939.6945   -15192.0000            83.65%
Found incumbent of value -92939.694508 after 0.06 sec. (0.82 ticks)
*     0+    0                       -92704.5000   -15192.0000            83.61%
Found incumbent of value -92704.500000 after 0.06 sec. (0.82 ticks)
*     0     0      integral     0   -89997.0858   -89997.0858       13    0.00%
Elapsed time = 0.06 sec. (0.83 ticks, tree = 0.00 MB)
Found incumbent of value -89997.085812 after 0.06 sec. (0.83 ticks)

Root node processing (before b&c):
  Real time             =    0.06 sec. (0.84 ticks)
Parallel b&c, 8 threads:
  Real time             =    0.00 sec. (0.00 ticks)
  Sync time (average)   =    0.00 sec.
  Wait time (average)   =    0.00 sec.
                          ------------
Total (root+branch&cut) =    0.06 sec. (0.84 ticks)

--- MIP status (101): integer optimal solution.
--- Cplex Time: 0.08sec (det. 0.84 ticks)

--- Returning a primal only solution to GAMS (marginals all set to NA).
--- Fixing integer variables and solving final LP...

Version identifier: 22.1.1.0 | 2022-11-27 | 9160aff4d
CPXPARAM_Advance                                 2
CPXPARAM_MIP_Display                             4
CPXPARAM_MIP_Pool_Capacity                       0
CPXPARAM_MIP_Tolerances_AbsMIPGap                0
Tried aggregator 1 time.
LP Presolve eliminated 121 rows and 140 columns.
Aggregator did 19 substitutions.
Reduced LP has 4 rows, 10 columns, and 13 nonzeros.
Presolve time = 0.00 sec. (0.10 ticks)
Initializing dual steep norms . . .

Iteration log . . .
Iteration:     1   Dual objective     =        -83510.083524

--- Fixed MIP status (1): optimal.
--- Cplex Time: 0.00sec (det. 0.16 ticks)


Proven optimal solution
MIP Solution:       -89997.085812    (13 iterations, 0 nodes)
Final Solve:        -89997.085812    (4 iterations)

Best possible:      -89997.085812
Absolute gap:            0.000000
Relative gap:            0.000000

--- Reading solution for model modelCe
--- Executing after solve: elapsed 0:00:00.297
--- GDX File (execute_unload) C:\Users\pm.deoliveiradejes\Documents\GitHub\PSE\C6_MINLP\C6_E1.gdx
*** Status: Normal completion
--- Job C6-E1.gms Stop 09/13/24 14:41:15 elapsed 0:00:00.297
